p cnf 213 934
-1 -33 0
-2 -33 0
1 2 33 0
1 2 -34 0
-1 -2 -34 0
-1 2 34 0
1 -2 34 0
33 -35 0
-3 -35 0
3 -33 35 0
3 -33 -36 0
-3 33 -36 0
3 33 36 0
-3 -33 36 0
35 -37 0
-4 -37 0
4 -35 37 0
4 -35 -38 0
-4 35 -38 0
4 35 38 0
-4 -35 38 0
37 -39 0
-5 -39 0
5 -37 39 0
5 -37 -40 0
-5 37 -40 0
5 37 40 0
-5 -37 40 0
39 -41 0
-6 -41 0
6 -39 41 0
6 -39 -42 0
-6 39 -42 0
6 39 42 0
-6 -39 42 0
41 -43 0
-7 -43 0
7 -41 43 0
7 -41 -44 0
-7 41 -44 0
7 41 44 0
-7 -41 44 0
43 -45 0
-8 -45 0
8 -43 45 0
8 -43 -46 0
-8 43 -46 0
8 43 46 0
-8 -43 46 0
4 -47 0
1 -47 0
-1 -4 47 0
-1 -4 -48 0
1 4 -48 0
1 -4 48 0
-1 4 48 0
-2 -5 49 0
-5 -47 49 0
-2 -47 49 0
2 5 -49 0
5 47 -49 0
2 47 -49 0
5 -49 -50 0
2 -49 -50 0
47 -49 -50 0
-5 49 50 0
-2 49 50 0
-47 49 50 0
-2 -5 -47 50 0
2 5 47 -50 0
-3 -6 51 0
-6 -49 51 0
-3 -49 51 0
3 6 -51 0
6 49 -51 0
3 49 -51 0
6 -51 -52 0
3 -51 -52 0
49 -51 -52 0
-6 51 52 0
-3 51 52 0
-49 51 52 0
-3 -6 -49 52 0
3 6 49 -52 0
-4 -7 53 0
-7 -51 53 0
-4 -51 53 0
4 7 -53 0
7 51 -53 0
4 51 -53 0
7 -53 -54 0
4 -53 -54 0
51 -53 -54 0
-7 53 54 0
-4 53 54 0
-51 53 54 0
-4 -7 -51 54 0
4 7 51 -54 0
-5 -8 55 0
-8 -53 55 0
-5 -53 55 0
5 8 -55 0
8 53 -55 0
5 53 -55 0
8 -55 -56 0
5 -55 -56 0
53 -55 -56 0
-8 55 56 0
-5 55 56 0
-53 55 56 0
-5 -8 -53 56 0
5 8 53 -56 0
6 -57 0
55 -57 0
-6 -55 57 0
-6 -55 -58 0
6 55 -58 0
-6 55 58 0
6 -55 58 0
7 -59 0
57 -59 0
-7 -57 59 0
-7 -57 -60 0
7 57 -60 0
-7 57 60 0
7 -57 60 0
8 -61 0
59 -61 0
-8 -59 61 0
-8 -59 -62 0
8 59 -62 0
-8 59 62 0
8 -59 62 0
52 -63 0
1 -63 0
-1 -52 63 0
-1 -52 -64 0
1 52 -64 0
1 -52 64 0
-1 52 64 0
-2 -54 65 0
-54 -63 65 0
-2 -63 65 0
2 54 -65 0
54 63 -65 0
2 63 -65 0
54 -65 -66 0
2 -65 -66 0
63 -65 -66 0
-54 65 66 0
-2 65 66 0
-63 65 66 0
-2 -54 -63 66 0
2 54 63 -66 0
-3 -56 67 0
-56 -65 67 0
-3 -65 67 0
3 56 -67 0
56 65 -67 0
3 65 -67 0
56 -67 -68 0
3 -67 -68 0
65 -67 -68 0
-56 67 68 0
-3 67 68 0
-65 67 68 0
-3 -56 -65 68 0
3 56 65 -68 0
-4 -58 69 0
-58 -67 69 0
-4 -67 69 0
4 58 -69 0
58 67 -69 0
4 67 -69 0
58 -69 -70 0
4 -69 -70 0
67 -69 -70 0
-58 69 70 0
-4 69 70 0
-67 69 70 0
-4 -58 -67 70 0
4 58 67 -70 0
-5 -60 71 0
-60 -69 71 0
-5 -69 71 0
5 60 -71 0
60 69 -71 0
5 69 -71 0
60 -71 -72 0
5 -71 -72 0
69 -71 -72 0
-60 71 72 0
-5 71 72 0
-69 71 72 0
-5 -60 -69 72 0
5 60 69 -72 0
-6 -62 73 0
-62 -71 73 0
-6 -71 73 0
6 62 -73 0
62 71 -73 0
6 71 -73 0
62 -73 -74 0
6 -73 -74 0
71 -73 -74 0
-62 73 74 0
-6 73 74 0
-71 73 74 0
-6 -62 -71 74 0
6 62 71 -74 0
-7 -61 75 0
-61 -73 75 0
-7 -73 75 0
7 61 -75 0
61 73 -75 0
7 73 -75 0
61 -75 -76 0
7 -75 -76 0
73 -75 -76 0
-61 75 76 0
-7 75 76 0
-73 75 76 0
-7 -61 -73 76 0
7 61 73 -76 0
8 -77 0
75 -77 0
-8 -75 77 0
-8 -75 -78 0
8 75 -78 0
-8 75 78 0
8 -75 78 0
-1 -79 0
-2 -79 0
1 2 79 0
1 2 -80 0
-1 -2 -80 0
-1 2 80 0
1 -2 80 0
79 -81 0
-3 -81 0
3 -79 81 0
3 -79 -82 0
-3 79 -82 0
3 79 82 0
-3 -79 82 0
81 -83 0
-48 -83 0
48 -81 83 0
48 -81 -84 0
-48 81 -84 0
48 81 84 0
-48 -81 84 0
83 -85 0
-50 -85 0
50 -83 85 0
50 -83 -86 0
-50 83 -86 0
50 83 86 0
-50 -83 86 0
85 -87 0
-64 -87 0
64 -85 87 0
64 -85 -88 0
-64 85 -88 0
64 85 88 0
-64 -85 88 0
87 -89 0
-66 -89 0
66 -87 89 0
66 -87 -90 0
-66 87 -90 0
66 87 90 0
-66 -87 90 0
89 -91 0
-68 -91 0
68 -89 91 0
68 -89 -92 0
-68 89 -92 0
68 89 92 0
-68 -89 92 0
91 -93 0
-70 -93 0
70 -91 93 0
70 -91 -94 0
-70 91 -94 0
70 91 94 0
-70 -91 94 0
93 -95 0
-72 -95 0
72 -93 95 0
72 -93 -96 0
-72 93 -96 0
72 93 96 0
-72 -93 96 0
95 -97 0
-74 -97 0
74 -95 97 0
74 -95 -98 0
-74 95 -98 0
74 95 98 0
-74 -95 98 0
97 -99 0
-76 -99 0
76 -97 99 0
76 -97 -100 0
-76 97 -100 0
76 97 100 0
-76 -97 100 0
99 -101 0
-78 -101 0
78 -99 101 0
78 -99 -102 0
-78 99 -102 0
78 99 102 0
-78 -99 102 0
101 -103 0
-77 -103 0
77 -101 103 0
77 -101 -104 0
-77 101 -104 0
77 101 104 0
-77 -101 104 0
-9 -105 0
-10 -105 0
9 10 105 0
9 10 -106 0
-9 -10 -106 0
-9 10 106 0
9 -10 106 0
105 -107 0
-11 -107 0
11 -105 107 0
11 -105 -108 0
-11 105 -108 0
11 105 108 0
-11 -105 108 0
107 -109 0
-12 -109 0
12 -107 109 0
12 -107 -110 0
-12 107 -110 0
12 107 110 0
-12 -107 110 0
109 -111 0
-13 -111 0
13 -109 111 0
13 -109 -112 0
-13 109 -112 0
13 109 112 0
-13 -109 112 0
111 -113 0
-14 -113 0
14 -111 113 0
14 -111 -114 0
-14 111 -114 0
14 111 114 0
-14 -111 114 0
113 -115 0
-15 -115 0
15 -113 115 0
15 -113 -116 0
-15 113 -116 0
15 113 116 0
-15 -113 116 0
115 -117 0
-16 -117 0
16 -115 117 0
16 -115 -118 0
-16 115 -118 0
16 115 118 0
-16 -115 118 0
10 -119 0
9 -119 0
-9 -10 119 0
-9 -10 -120 0
9 10 -120 0
9 -10 120 0
-9 10 120 0
-10 -11 121 0
-11 -119 121 0
-10 -119 121 0
10 11 -121 0
11 119 -121 0
10 119 -121 0
11 -121 -122 0
10 -121 -122 0
119 -121 -122 0
-11 121 122 0
-10 121 122 0
-119 121 122 0
-10 -11 -119 122 0
10 11 119 -122 0
-11 -12 123 0
-12 -121 123 0
-11 -121 123 0
11 12 -123 0
12 121 -123 0
11 121 -123 0
12 -123 -124 0
11 -123 -124 0
121 -123 -124 0
-12 123 124 0
-11 123 124 0
-121 123 124 0
-11 -12 -121 124 0
11 12 121 -124 0
-12 -13 125 0
-13 -123 125 0
-12 -123 125 0
12 13 -125 0
13 123 -125 0
12 123 -125 0
13 -125 -126 0
12 -125 -126 0
123 -125 -126 0
-13 125 126 0
-12 125 126 0
-123 125 126 0
-12 -13 -123 126 0
12 13 123 -126 0
-13 -14 127 0
-14 -125 127 0
-13 -125 127 0
13 14 -127 0
14 125 -127 0
13 125 -127 0
14 -127 -128 0
13 -127 -128 0
125 -127 -128 0
-14 127 128 0
-13 127 128 0
-125 127 128 0
-13 -14 -125 128 0
13 14 125 -128 0
-14 -15 129 0
-15 -127 129 0
-14 -127 129 0
14 15 -129 0
15 127 -129 0
14 127 -129 0
15 -129 -130 0
14 -129 -130 0
127 -129 -130 0
-15 129 130 0
-14 129 130 0
-127 129 130 0
-14 -15 -127 130 0
14 15 127 -130 0
-15 -16 131 0
-16 -129 131 0
-15 -129 131 0
15 16 -131 0
16 129 -131 0
15 129 -131 0
16 -131 -132 0
15 -131 -132 0
129 -131 -132 0
-16 131 132 0
-15 131 132 0
-129 131 132 0
-15 -16 -129 132 0
15 16 129 -132 0
16 -133 0
131 -133 0
-16 -131 133 0
-16 -131 -134 0
16 131 -134 0
-16 131 134 0
16 -131 134 0
122 -135 0
9 -135 0
-9 -122 135 0
-9 -122 -136 0
9 122 -136 0
9 -122 136 0
-9 122 136 0
-10 -124 137 0
-124 -135 137 0
-10 -135 137 0
10 124 -137 0
124 135 -137 0
10 135 -137 0
124 -137 -138 0
10 -137 -138 0
135 -137 -138 0
-124 137 138 0
-10 137 138 0
-135 137 138 0
-10 -124 -135 138 0
10 124 135 -138 0
-11 -126 139 0
-126 -137 139 0
-11 -137 139 0
11 126 -139 0
126 137 -139 0
11 137 -139 0
126 -139 -140 0
11 -139 -140 0
137 -139 -140 0
-126 139 140 0
-11 139 140 0
-137 139 140 0
-11 -126 -137 140 0
11 126 137 -140 0
-12 -128 141 0
-128 -139 141 0
-12 -139 141 0
12 128 -141 0
128 139 -141 0
12 139 -141 0
128 -141 -142 0
12 -141 -142 0
139 -141 -142 0
-128 141 142 0
-12 141 142 0
-139 141 142 0
-12 -128 -139 142 0
12 128 139 -142 0
-13 -130 143 0
-130 -141 143 0
-13 -141 143 0
13 130 -143 0
130 141 -143 0
13 141 -143 0
130 -143 -144 0
13 -143 -144 0
141 -143 -144 0
-130 143 144 0
-13 143 144 0
-141 143 144 0
-13 -130 -141 144 0
13 130 141 -144 0
-14 -132 145 0
-132 -143 145 0
-14 -143 145 0
14 132 -145 0
132 143 -145 0
14 143 -145 0
132 -145 -146 0
14 -145 -146 0
143 -145 -146 0
-132 145 146 0
-14 145 146 0
-143 145 146 0
-14 -132 -143 146 0
14 132 143 -146 0
-15 -134 147 0
-134 -145 147 0
-15 -145 147 0
15 134 -147 0
134 145 -147 0
15 145 -147 0
134 -147 -148 0
15 -147 -148 0
145 -147 -148 0
-134 147 148 0
-15 147 148 0
-145 147 148 0
-15 -134 -145 148 0
15 134 145 -148 0
-16 -133 149 0
-133 -147 149 0
-16 -147 149 0
16 133 -149 0
133 147 -149 0
16 147 -149 0
133 -149 -150 0
16 -149 -150 0
147 -149 -150 0
-133 149 150 0
-16 149 150 0
-147 149 150 0
-16 -133 -147 150 0
16 133 147 -150 0
138 -151 0
9 -151 0
-9 -138 151 0
-9 -138 -152 0
9 138 -152 0
9 -138 152 0
-9 138 152 0
-10 -140 153 0
-140 -151 153 0
-10 -151 153 0
10 140 -153 0
140 151 -153 0
10 151 -153 0
140 -153 -154 0
10 -153 -154 0
151 -153 -154 0
-140 153 154 0
-10 153 154 0
-151 153 154 0
-10 -140 -151 154 0
10 140 151 -154 0
-11 -142 155 0
-142 -153 155 0
-11 -153 155 0
11 142 -155 0
142 153 -155 0
11 153 -155 0
142 -155 -156 0
11 -155 -156 0
153 -155 -156 0
-142 155 156 0
-11 155 156 0
-153 155 156 0
-11 -142 -153 156 0
11 142 153 -156 0
-12 -144 157 0
-144 -155 157 0
-12 -155 157 0
12 144 -157 0
144 155 -157 0
12 155 -157 0
144 -157 -158 0
12 -157 -158 0
155 -157 -158 0
-144 157 158 0
-12 157 158 0
-155 157 158 0
-12 -144 -155 158 0
12 144 155 -158 0
-13 -146 159 0
-146 -157 159 0
-13 -157 159 0
13 146 -159 0
146 157 -159 0
13 157 -159 0
146 -159 -160 0
13 -159 -160 0
157 -159 -160 0
-146 159 160 0
-13 159 160 0
-157 159 160 0
-13 -146 -157 160 0
13 146 157 -160 0
-14 -148 161 0
-148 -159 161 0
-14 -159 161 0
14 148 -161 0
148 159 -161 0
14 159 -161 0
148 -161 -162 0
14 -161 -162 0
159 -161 -162 0
-148 161 162 0
-14 161 162 0
-159 161 162 0
-14 -148 -159 162 0
14 148 159 -162 0
-15 -150 163 0
-150 -161 163 0
-15 -161 163 0
15 150 -163 0
150 161 -163 0
15 161 -163 0
150 -163 -164 0
15 -163 -164 0
161 -163 -164 0
-150 163 164 0
-15 163 164 0
-161 163 164 0
-15 -150 -161 164 0
15 150 161 -164 0
-16 -149 165 0
-149 -163 165 0
-16 -163 165 0
16 149 -165 0
149 163 -165 0
16 163 -165 0
149 -165 -166 0
16 -165 -166 0
163 -165 -166 0
-149 165 166 0
-16 165 166 0
-163 165 166 0
-16 -149 -163 166 0
16 149 163 -166 0
-9 -167 0
-120 -167 0
9 120 167 0
9 120 -168 0
-9 -120 -168 0
-9 120 168 0
9 -120 168 0
167 -169 0
-136 -169 0
136 -167 169 0
136 -167 -170 0
-136 167 -170 0
136 167 170 0
-136 -167 170 0
169 -171 0
-152 -171 0
152 -169 171 0
152 -169 -172 0
-152 169 -172 0
152 169 172 0
-152 -169 172 0
171 -173 0
-154 -173 0
154 -171 173 0
154 -171 -174 0
-154 171 -174 0
154 171 174 0
-154 -171 174 0
173 -175 0
-156 -175 0
156 -173 175 0
156 -173 -176 0
-156 173 -176 0
156 173 176 0
-156 -173 176 0
175 -177 0
-158 -177 0
158 -175 177 0
158 -175 -178 0
-158 175 -178 0
158 175 178 0
-158 -175 178 0
177 -179 0
-160 -179 0
160 -177 179 0
160 -177 -180 0
-160 177 -180 0
160 177 180 0
-160 -177 180 0
179 -181 0
-162 -181 0
162 -179 181 0
162 -179 -182 0
-162 179 -182 0
162 179 182 0
-162 -179 182 0
181 -183 0
-164 -183 0
164 -181 183 0
164 -181 -184 0
-164 181 -184 0
164 181 184 0
-164 -181 184 0
183 -185 0
-166 -185 0
166 -183 185 0
166 -183 -186 0
-166 183 -186 0
166 183 186 0
-166 -183 186 0
185 -187 0
-165 -187 0
165 -185 187 0
165 -185 -188 0
-165 185 -188 0
165 185 188 0
-165 -185 188 0
3 -189 0
9 -189 0
-3 -9 189 0
-3 -9 -190 0
3 9 -190 0
-3 9 190 0
3 -9 190 0
-48 -120 191 0
-48 -189 191 0
-120 -189 191 0
48 120 -191 0
48 189 -191 0
120 189 -191 0
48 -191 -192 0
120 -191 -192 0
189 -191 -192 0
-48 191 192 0
-120 191 192 0
-189 191 192 0
-48 -120 -189 192 0
48 120 189 -192 0
-50 -136 193 0
-50 -191 193 0
-136 -191 193 0
50 136 -193 0
50 191 -193 0
136 191 -193 0
50 -193 -194 0
136 -193 -194 0
191 -193 -194 0
-50 193 194 0
-136 193 194 0
-191 193 194 0
-50 -136 -191 194 0
50 136 191 -194 0
-64 -152 195 0
-64 -193 195 0
-152 -193 195 0
64 152 -195 0
64 193 -195 0
152 193 -195 0
64 -195 -196 0
152 -195 -196 0
193 -195 -196 0
-64 195 196 0
-152 195 196 0
-193 195 196 0
-64 -152 -193 196 0
64 152 193 -196 0
-66 -154 197 0
-66 -195 197 0
-154 -195 197 0
66 154 -197 0
66 195 -197 0
154 195 -197 0
66 -197 -198 0
154 -197 -198 0
195 -197 -198 0
-66 197 198 0
-154 197 198 0
-195 197 198 0
-66 -154 -195 198 0
66 154 195 -198 0
-68 -156 199 0
-68 -197 199 0
-156 -197 199 0
68 156 -199 0
68 197 -199 0
156 197 -199 0
68 -199 -200 0
156 -199 -200 0
197 -199 -200 0
-68 199 200 0
-156 199 200 0
-197 199 200 0
-68 -156 -197 200 0
68 156 197 -200 0
-70 -158 201 0
-70 -199 201 0
-158 -199 201 0
70 158 -201 0
70 199 -201 0
158 199 -201 0
70 -201 -202 0
158 -201 -202 0
199 -201 -202 0
-70 201 202 0
-158 201 202 0
-199 201 202 0
-70 -158 -199 202 0
70 158 199 -202 0
-72 -160 203 0
-72 -201 203 0
-160 -201 203 0
72 160 -203 0
72 201 -203 0
160 201 -203 0
72 -203 -204 0
160 -203 -204 0
201 -203 -204 0
-72 203 204 0
-160 203 204 0
-201 203 204 0
-72 -160 -201 204 0
72 160 201 -204 0
-74 -162 205 0
-74 -203 205 0
-162 -203 205 0
74 162 -205 0
74 203 -205 0
162 203 -205 0
74 -205 -206 0
162 -205 -206 0
203 -205 -206 0
-74 205 206 0
-162 205 206 0
-203 205 206 0
-74 -162 -203 206 0
74 162 203 -206 0
-76 -164 207 0
-76 -205 207 0
-164 -205 207 0
76 164 -207 0
76 205 -207 0
164 205 -207 0
76 -207 -208 0
164 -207 -208 0
205 -207 -208 0
-76 207 208 0
-164 207 208 0
-205 207 208 0
-76 -164 -205 208 0
76 164 205 -208 0
-78 -166 209 0
-78 -207 209 0
-166 -207 209 0
78 166 -209 0
78 207 -209 0
166 207 -209 0
78 -209 -210 0
166 -209 -210 0
207 -209 -210 0
-78 209 210 0
-166 209 210 0
-207 209 210 0
-78 -166 -207 210 0
78 166 207 -210 0
-77 -165 211 0
-77 -209 211 0
-165 -209 211 0
77 165 -211 0
77 209 -211 0
165 209 -211 0
77 -211 -212 0
165 -211 -212 0
209 -211 -212 0
-77 211 212 0
-165 211 212 0
-209 211 212 0
-77 -165 -209 212 0
77 165 209 -212 0
-1 -213 0
-2 -213 0
190 -213 0
192 -213 0
-194 -213 0
-196 -213 0
-198 -213 0
200 -213 0
-202 -213 0
-204 -213 0
-206 -213 0
-208 -213 0
-210 -213 0
-211 -213 0
-212 -213 0
1 2 -190 -192 194 196 198 -200 202 204 206 208 210 211 212 213 0
213 0
c main::$tmp::return_value_nondet_char!0@1#1 17 18 19 20 21 22 23 24
c symex::nondet1 9 10 11 12 13 14 15 16
c symex::nondet0 1 2 3 4 5 6 7 8
c main::$tmp::return_value_nondet_char$0!0@1#2 9 10 11 12 13 14 15 16
c __CPROVER_rounding_mode!0#1 FALSE FALSE FALSE FALSE FALSE FALSE FALSE FALSE FALSE FALSE FALSE FALSE FALSE FALSE FALSE FALSE FALSE FALSE FALSE FALSE FALSE FALSE FALSE FALSE FALSE FALSE FALSE FALSE FALSE FALSE FALSE FALSE
c main::$tmp::return_value_nondet_char$0!0@1#1 25 26 27 28 29 30 31 32
c __CPROVER_memory_leak#1 FALSE FALSE FALSE FALSE FALSE FALSE FALSE FALSE FALSE FALSE FALSE FALSE FALSE FALSE FALSE FALSE FALSE FALSE FALSE FALSE FALSE FALSE FALSE FALSE FALSE FALSE FALSE FALSE FALSE FALSE FALSE FALSE FALSE FALSE FALSE FALSE FALSE FALSE FALSE FALSE FALSE FALSE FALSE FALSE FALSE FALSE FALSE FALSE FALSE FALSE FALSE FALSE FALSE FALSE FALSE FALSE FALSE FALSE FALSE FALSE FALSE FALSE FALSE FALSE
c __CPROVER_max_malloc_size#1 FALSE FALSE FALSE FALSE FALSE FALSE FALSE FALSE FALSE FALSE FALSE FALSE FALSE FALSE FALSE FALSE FALSE FALSE FALSE FALSE FALSE FALSE FALSE FALSE FALSE FALSE FALSE FALSE FALSE FALSE FALSE FALSE FALSE FALSE FALSE FALSE FALSE FALSE FALSE FALSE FALSE FALSE FALSE FALSE FALSE FALSE FALSE FALSE FALSE FALSE FALSE FALSE FALSE FALSE FALSE TRUE FALSE FALSE FALSE FALSE FALSE FALSE FALSE FALSE
c __CPROVER_deallocated#1 FALSE FALSE FALSE FALSE FALSE FALSE FALSE FALSE FALSE FALSE FALSE FALSE FALSE FALSE FALSE FALSE FALSE FALSE FALSE FALSE FALSE FALSE FALSE FALSE FALSE FALSE FALSE FALSE FALSE FALSE FALSE FALSE FALSE FALSE FALSE FALSE FALSE FALSE FALSE FALSE FALSE FALSE FALSE FALSE FALSE FALSE FALSE FALSE FALSE FALSE FALSE FALSE FALSE FALSE FALSE FALSE FALSE FALSE FALSE FALSE FALSE FALSE FALSE FALSE
c main::$tmp::return_value_nondet_char!0@1#2 1 2 3 4 5 6 7 8
c __CPROVER_dead_object#1 FALSE FALSE FALSE FALSE FALSE FALSE FALSE FALSE FALSE FALSE FALSE FALSE FALSE FALSE FALSE FALSE FALSE FALSE FALSE FALSE FALSE FALSE FALSE FALSE FALSE FALSE FALSE FALSE FALSE FALSE FALSE FALSE FALSE FALSE FALSE FALSE FALSE FALSE FALSE FALSE FALSE FALSE FALSE FALSE FALSE FALSE FALSE FALSE FALSE FALSE FALSE FALSE FALSE FALSE FALSE FALSE FALSE FALSE FALSE FALSE FALSE FALSE FALSE FALSE
